(set-info :smt-lib-version 2.6)
(set-logic QF_UF)
(set-info :source |
Generated by: David Deharbe, CLEARSY
Generated on: 2019-09-09
Generator: bxml;pog;pog2smt (Atelier B)
Application: B-method
Target solver: CVC4, Z3
|)
(set-info :license "https://creativecommons.org/licenses/by-nc/4.0/")
(set-info :category "industrial")
(set-info :status unknown)
; Prelude
(declare-sort U 0)
(declare-fun |*i| (U U) U)
(declare-fun |+i| (U U) U)
(declare-fun |-i| (U U) U)
(declare-fun idiv (U U) U)
(declare-fun |*r| (U U) U)
(declare-fun |+r| (U U) U)
(declare-fun |-r| (U U) U)
(declare-fun rdiv (U U) U)
(declare-fun modulo (U U) U)
(declare-fun |<i| (U U) Bool)
(declare-fun |<=i| (U U) Bool)
(declare-fun |>i| (U U) Bool)
(declare-fun |>=i| (U U) Bool)
(declare-fun |<r| (U U) Bool)
(declare-fun |<=r| (U U) Bool)
(declare-fun |>r| (U U) Bool)
(declare-fun |>=r| (U U) Bool)
(declare-fun iuminus (U) U)
(declare-fun ruminus (U) U)
(declare-fun TRUE () U)
(declare-fun FALSE () U)
(assert (not (= TRUE FALSE)))
(declare-fun empty () U)
(declare-fun bool (Bool) U)
(declare-fun BOOL () U)
(declare-fun INT () U)
(declare-fun INTEGER () U)
(declare-fun NAT () U)
(declare-fun NAT1 () U)
(declare-fun NATURAL () U)
(declare-fun NATURAL1 () U)
(declare-fun FLOAT () U)
(declare-fun MaxInt () U)
(declare-fun MinInt () U)
(declare-fun |STRING| () U)
(declare-fun REAL () U)
(declare-fun set_prod (U U) U)
(declare-fun set_diff (U U) U)
(declare-fun mapplet (U U) U)
(declare-fun |**i| (U U) U)
(declare-fun |**r| (U U) U)
(declare-fun |+->| (U U) U)
(declare-fun |+->>| (U U) U)
(declare-fun |-->| (U U) U)
(declare-fun |-->>| (U U) U)
(declare-fun |<->| (U U) U)
(declare-fun |>+>| (U U) U)
(declare-fun |>->| (U U) U)
(declare-fun |>+>>| (U U) U)
(declare-fun |>->>| (U U) U)
(declare-fun |->| (U U) U)
(declare-fun interval (U U) U)
(declare-fun composition (U U) U)
(declare-fun binary_inter (U U) U)
(declare-fun restriction_head (U U) U)
(declare-fun semicolon (U U) U)
(declare-fun |<+| (U U) U)
(declare-fun |<-| (U U) U)
(declare-fun domain_subtraction (U U) U)
(declare-fun domain_restriction (U U) U)
(declare-fun |><| (U U) U)
(declare-fun parallel_product (U U) U)
(declare-fun binary_union (U U) U)
(declare-fun restriction_tail (U U) U)
(declare-fun concatenate (U U) U)
(declare-fun range_restriction (U U) U)
(declare-fun range_subtraction (U U) U)
(declare-fun image (U U) U)
(declare-fun apply (U U) U)
(declare-fun prj1 (U U) U)
(declare-fun prj2 (U U) U)
(declare-fun iterate (U U) U)
(declare-fun |const| (U U) U)
(declare-fun rank (U U) U)
(declare-fun father (U U) U)
(declare-fun subtree (U U) U)
(declare-fun arity (U U) U)
(declare-fun |+f| (U U) U)
(declare-fun |-f| (U U) U)
(declare-fun |*f| (U U) U)
(declare-fun |fdiv| (U U) U)
(declare-fun tbin (U U U) U)
(declare-fun son (U U U) U)
(declare-fun mem (U U) Bool)
(declare-fun subset (U U) Bool)
(declare-fun strict_subset (U U) Bool)
(declare-fun |<=f| (U U) Bool)
(declare-fun |<f| (U U) Bool)
(declare-fun |>=f| (U U) Bool)
(declare-fun |>f| (U U) Bool)
(declare-fun imax (U) U)
(declare-fun imin (U) U)
(declare-fun rmax (U) U)
(declare-fun rmin (U) U)
(declare-fun card (U) U)
(declare-fun dom (U) U)
(declare-fun ran (U) U)
(declare-fun POW (U) U)
(declare-fun POW1 (U) U)
(declare-fun FIN (U) U)
(declare-fun FIN1 (U) U)
(declare-fun union (U) U)
(declare-fun inter (U) U)
(declare-fun seq (U) U)
(declare-fun seq1 (U) U)
(declare-fun iseq (U) U)
(declare-fun iseq1 (U) U)
(declare-fun inverse (U) U)
(declare-fun size (U) U)
(declare-fun perm (U) U)
(declare-fun first (U) U)
(declare-fun last (U) U)
(declare-fun id (U) U)
(declare-fun closure (U) U)
(declare-fun closure1 (U) U)
(declare-fun tail (U) U)
(declare-fun front (U) U)
(declare-fun reverse (U) U)
(declare-fun rev (U) U)
(declare-fun conc (U) U)
(declare-fun succ (U) U)
(declare-fun pred (U) U)
(declare-fun rel (U) U)
(declare-fun fnc (U) U)
(declare-fun real (U) U)
(declare-fun floor (U) U)
(declare-fun ceiling (U) U)
(declare-fun tree (U) U)
(declare-fun btree (U) U)
(declare-fun top (U) U)
(declare-fun sons (U) U)
(declare-fun prefix (U) U)
(declare-fun postfix (U) U)
(declare-fun sizet (U) U)
(declare-fun mirror (U) U)
(declare-fun left (U) U)
(declare-fun right (U) U)
(declare-fun infix (U) U)
(declare-fun ubin (U) U)
(declare-fun SEQ (U) U)
(declare-fun SET (U) U)
; Opaque formulas
(declare-fun e59 () U)
(declare-fun e0 () U)
(declare-fun e80 () U)
(declare-fun e104 () U)
(declare-fun e129 () U)
(declare-fun e61 () U)
(declare-fun e60 () U)
(declare-fun g_s0_1 () U)
(declare-fun g_s1_2 () U)
(declare-fun g_s10_11 () U)
(declare-fun g_s100_106 () U)
(declare-fun g_s101_107 () U)
(declare-fun g_s102_108 () U)
(declare-fun g_s103_109 () U)
(declare-fun g_s104_110 () U)
(declare-fun g_s105_111 () U)
(declare-fun g_s106_112 () U)
(declare-fun g_s107_113 () U)
(declare-fun g_s108_114 () U)
(declare-fun g_s109_115 () U)
(declare-fun g_s11_12 () U)
(declare-fun g_s110_116 () U)
(declare-fun g_s111_117 () U)
(declare-fun g_s112_118 () U)
(declare-fun g_s113_119 () U)
(declare-fun g_s114_120 () U)
(declare-fun g_s115_121 () U)
(declare-fun g_s116_122 () U)
(declare-fun g_s117_123 () U)
(declare-fun g_s118_124 () U)
(declare-fun g_s119_125 () U)
(declare-fun g_s12_13 () U)
(declare-fun g_s120_126 () U)
(declare-fun g_s121_127 () U)
(declare-fun g_s122_128 () U)
(declare-fun g_s123_130 () U)
(declare-fun g_s124_131 () U)
(declare-fun g_s125_132 () U)
(declare-fun g_s126_133 () U)
(declare-fun g_s127_134 () U)
(declare-fun g_s128_135 () U)
(declare-fun g_s129_136 () U)
(declare-fun g_s13_14 () U)
(declare-fun g_s130_137 () U)
(declare-fun g_s131_138 () U)
(declare-fun g_s132_139 () U)
(declare-fun g_s133_140 () U)
(declare-fun g_s134_141 () U)
(declare-fun g_s135_142 () U)
(declare-fun g_s136_143 () U)
(declare-fun g_s137_144 () U)
(declare-fun g_s138_145 () U)
(declare-fun g_s139_146 () U)
(declare-fun g_s14_15 () U)
(declare-fun g_s140_147 () U)
(declare-fun g_s141_148 () U)
(declare-fun g_s142_149 () U)
(declare-fun g_s143_150 () U)
(declare-fun g_s144_151 () U)
(declare-fun g_s145_152 () U)
(declare-fun g_s146_153 () U)
(declare-fun g_s147_154 () U)
(declare-fun g_s148_155 () U)
(declare-fun g_s149_156 () U)
(declare-fun g_s15_16 () U)
(declare-fun g_s150_157 () U)
(declare-fun g_s151_158 () U)
(declare-fun g_s152_159 () U)
(declare-fun g_s153_160 () U)
(declare-fun g_s154_161 () U)
(declare-fun g_s155_162 () U)
(declare-fun g_s156_163 () U)
(declare-fun g_s157_164 () U)
(declare-fun g_s158_165 () U)
(declare-fun g_s159_166 () U)
(declare-fun g_s16_17 () U)
(declare-fun g_s160_167 () U)
(declare-fun g_s161_168 () U)
(declare-fun g_s162_169 () U)
(declare-fun g_s163_170 () U)
(declare-fun g_s164_171 () U)
(declare-fun g_s165_172 () U)
(declare-fun g_s166_173 () U)
(declare-fun g_s167_174 () U)
(declare-fun g_s168_175 () U)
(declare-fun g_s169_176 () U)
(declare-fun g_s17_18 () U)
(declare-fun g_s170_177 () U)
(declare-fun g_s171_178 () U)
(declare-fun g_s172_179 () U)
(declare-fun g_s173_180 () U)
(declare-fun g_s174_181 () U)
(declare-fun g_s175_182 () U)
(declare-fun g_s176_183 () U)
(declare-fun g_s177_184 () U)
(declare-fun g_s178_185 () U)
(declare-fun g_s179_186 () U)
(declare-fun g_s18_19 () U)
(declare-fun g_s180_187 () U)
(declare-fun g_s181_188 () U)
(declare-fun g_s182_189 () U)
(declare-fun g_s183_190 () U)
(declare-fun g_s184_191 () U)
(declare-fun g_s185_192 () U)
(declare-fun g_s186_193 () U)
(declare-fun g_s187_194 () U)
(declare-fun g_s188_195 () U)
(declare-fun g_s189_196 () U)
(declare-fun g_s19_20 () U)
(declare-fun g_s190_197 () U)
(declare-fun g_s191_198 () U)
(declare-fun g_s192_199 () U)
(declare-fun g_s193_200 () U)
(declare-fun g_s194_201 () U)
(declare-fun g_s195_202 () U)
(declare-fun g_s196_203 () U)
(declare-fun g_s197_204 () U)
(declare-fun g_s198_205 () U)
(declare-fun g_s199_206 () U)
(declare-fun g_s2_3 () U)
(declare-fun g_s20_21 () U)
(declare-fun g_s200_207 () U)
(declare-fun g_s201_208 () U)
(declare-fun g_s202_209 () U)
(declare-fun g_s203_210 () U)
(declare-fun g_s204_211 () U)
(declare-fun g_s205_212 () U)
(declare-fun g_s206_213 () U)
(declare-fun g_s207_214 () U)
(declare-fun g_s208_215 () U)
(declare-fun g_s209_216 () U)
(declare-fun g_s21_22 () U)
(declare-fun g_s210_217 () U)
(declare-fun g_s211_218 () U)
(declare-fun g_s212_219 () U)
(declare-fun g_s213_220 () U)
(declare-fun g_s214_221 () U)
(declare-fun g_s215_222 () U)
(declare-fun g_s216_223 () U)
(declare-fun g_s217_224 () U)
(declare-fun g_s218_225 () U)
(declare-fun g_s219_226 () U)
(declare-fun g_s22_23 () U)
(declare-fun g_s220_227 () U)
(declare-fun g_s221_228 () U)
(declare-fun g_s222_229 () U)
(declare-fun g_s223_230 () U)
(declare-fun g_s224_231 () U)
(declare-fun g_s225_232 () U)
(declare-fun g_s226_233 () U)
(declare-fun g_s227_234 () U)
(declare-fun g_s228_235 () U)
(declare-fun g_s229_236 () U)
(declare-fun g_s23_24 () U)
(declare-fun g_s230_237 () U)
(declare-fun g_s231_238 () U)
(declare-fun g_s232_239 () U)
(declare-fun g_s233_240 () U)
(declare-fun g_s234_241 () U)
(declare-fun g_s235_242 () U)
(declare-fun g_s236_243 () U)
(declare-fun g_s237_244 () U)
(declare-fun g_s238_245 () U)
(declare-fun g_s239_246 () U)
(declare-fun g_s24_25 () U)
(declare-fun g_s240_247 () U)
(declare-fun g_s241_248 () U)
(declare-fun g_s242_249 () U)
(declare-fun g_s243_250 () U)
(declare-fun g_s244_251 () U)
(declare-fun g_s245_252 () U)
(declare-fun g_s246_253 () U)
(declare-fun g_s247_254 () U)
(declare-fun g_s248_255 () U)
(declare-fun g_s249_256 () U)
(declare-fun g_s25_26 () U)
(declare-fun g_s250_257 () U)
(declare-fun g_s251_258 () U)
(declare-fun g_s252_259 () U)
(declare-fun g_s253_260 () U)
(declare-fun g_s254_261 () U)
(declare-fun g_s255_262 () U)
(declare-fun g_s256_263 () U)
(declare-fun g_s257_264 () U)
(declare-fun g_s258_265 () U)
(declare-fun g_s259_266 () U)
(declare-fun g_s26_27 () U)
(declare-fun g_s260_267 () U)
(declare-fun g_s261_268 () U)
(declare-fun g_s262_269 () U)
(declare-fun g_s263_270 () U)
(declare-fun g_s264_271 () U)
(declare-fun g_s265_272 () U)
(declare-fun g_s266_273 () U)
(declare-fun g_s267_274 () U)
(declare-fun g_s268_275 () U)
(declare-fun g_s269_276 () U)
(declare-fun g_s27_28 () U)
(declare-fun g_s270_277 () U)
(declare-fun g_s271_278 () U)
(declare-fun g_s272_279 () U)
(declare-fun g_s273_280 () U)
(declare-fun g_s274_281 () U)
(declare-fun g_s275_282 () U)
(declare-fun g_s276_283 () U)
(declare-fun g_s277_284 () U)
(declare-fun g_s278_285 () U)
(declare-fun g_s279_286 () U)
(declare-fun g_s28_29 () U)
(declare-fun g_s280_287 () U)
(declare-fun g_s281_288 () U)
(declare-fun g_s282_289 () U)
(declare-fun g_s283_290 () U)
(declare-fun g_s284_291 () U)
(declare-fun g_s285_292 () U)
(declare-fun g_s286_293 () U)
(declare-fun g_s287_294 () U)
(declare-fun g_s288_295 () U)
(declare-fun g_s289_296 () U)
(declare-fun g_s29_30 () U)
(declare-fun g_s290_297 () U)
(declare-fun g_s291_298 () U)
(declare-fun g_s292_299 () U)
(declare-fun g_s293_300 () U)
(declare-fun g_s294_301 () U)
(declare-fun g_s295_302 () U)
(declare-fun g_s296_303 () U)
(declare-fun g_s297_304 () U)
(declare-fun g_s298_305 () U)
(declare-fun g_s299_306 () U)
(declare-fun g_s3_4 () U)
(declare-fun g_s30_31 () U)
(declare-fun g_s300_307 () U)
(declare-fun g_s301_308 () U)
(declare-fun g_s302_309 () U)
(declare-fun g_s303_310 () U)
(declare-fun g_s304_311 () U)
(declare-fun g_s305_312 () U)
(declare-fun g_s306_313 () U)
(declare-fun g_s307_314 () U)
(declare-fun g_s308_315 () U)
(declare-fun g_s309_316 () U)
(declare-fun g_s31_32 () U)
(declare-fun g_s310_317 () U)
(declare-fun g_s311_318 () U)
(declare-fun g_s312_319 () U)
(declare-fun g_s313_320 () U)
(declare-fun g_s314_321 () U)
(declare-fun g_s315_322 () U)
(declare-fun g_s316_323 () U)
(declare-fun g_s317_324 () U)
(declare-fun g_s318_325 () U)
(declare-fun g_s319_326 () U)
(declare-fun g_s32_33 () U)
(declare-fun g_s320_327 () U)
(declare-fun g_s321_328 () U)
(declare-fun g_s321$1_331 () U)
(declare-fun g_s322_329 () U)
(declare-fun g_s322$1_332 () U)
(declare-fun g_s323_330 () U)
(declare-fun g_s323$1_333 () U)
(declare-fun g_s324$1_334 () U)
(declare-fun g_s326$1_335 () U)
(declare-fun g_s327$1_336 () U)
(declare-fun g_s328$1_337 () U)
(declare-fun g_s329$1_338 () U)
(declare-fun g_s33_34 () U)
(declare-fun g_s330$1_339 () U)
(declare-fun g_s331$1_340 () U)
(declare-fun g_s332_344 () U)
(declare-fun g_s332$1_345 () U)
(declare-fun g_s332$1_341 () U)
(declare-fun g_s332$2_342 () U)
(declare-fun g_s332$3_343 () U)
(declare-fun g_s34_35 () U)
(declare-fun g_s35_36 () U)
(declare-fun g_s36_37 () U)
(declare-fun g_s37_38 () U)
(declare-fun g_s38_39 () U)
(declare-fun g_s39_40 () U)
(declare-fun g_s4_5 () U)
(declare-fun g_s40_41 () U)
(declare-fun g_s41_42 () U)
(declare-fun g_s42_43 () U)
(declare-fun g_s43_44 () U)
(declare-fun g_s44_45 () U)
(declare-fun g_s45_46 () U)
(declare-fun g_s46_47 () U)
(declare-fun g_s47_48 () U)
(declare-fun g_s48_49 () U)
(declare-fun g_s49_50 () U)
(declare-fun g_s5_6 () U)
(declare-fun g_s50_52 () U)
(declare-fun g_s51_51 () U)
(declare-fun g_s52_54 () U)
(declare-fun g_s53_53 () U)
(declare-fun g_s54_56 () U)
(declare-fun g_s55_55 () U)
(declare-fun g_s56_57 () U)
(declare-fun g_s57_58 () U)
(declare-fun g_s58_62 () U)
(declare-fun g_s59_63 () U)
(declare-fun g_s6_7 () U)
(declare-fun g_s60_64 () U)
(declare-fun g_s61_65 () U)
(declare-fun g_s62_66 () U)
(declare-fun g_s63_67 () U)
(declare-fun g_s64_68 () U)
(declare-fun g_s65_69 () U)
(declare-fun g_s66_70 () U)
(declare-fun g_s67_71 () U)
(declare-fun g_s68_72 () U)
(declare-fun g_s69_73 () U)
(declare-fun g_s7_8 () U)
(declare-fun g_s70_74 () U)
(declare-fun g_s71_75 () U)
(declare-fun g_s72_76 () U)
(declare-fun g_s73_77 () U)
(declare-fun g_s74_78 () U)
(declare-fun g_s75_79 () U)
(declare-fun g_s76_81 () U)
(declare-fun g_s77_82 () U)
(declare-fun g_s78_83 () U)
(declare-fun g_s79_84 () U)
(declare-fun g_s8_9 () U)
(declare-fun g_s80_85 () U)
(declare-fun g_s81_86 () U)
(declare-fun g_s82_87 () U)
(declare-fun g_s83_88 () U)
(declare-fun g_s84_89 () U)
(declare-fun g_s85_90 () U)
(declare-fun g_s86_91 () U)
(declare-fun g_s87_92 () U)
(declare-fun g_s88_93 () U)
(declare-fun g_s89_94 () U)
(declare-fun g_s9_10 () U)
(declare-fun g_s90_95 () U)
(declare-fun g_s91_96 () U)
(declare-fun g_s92_97 () U)
(declare-fun g_s93_98 () U)
(declare-fun g_s94_99 () U)
(declare-fun g_s95_100 () U)
(declare-fun g_s96_101 () U)
(declare-fun g_s97_102 () U)
(declare-fun g_s98_103 () U)
(declare-fun g_s99_105 () U)
; Defines
(define-fun |def_B definitions| () Bool (and (= NAT (interval e0 MaxInt)) (= INT (interval MinInt MaxInt))))
(define-fun |def_ctx| () Bool (and (= g_s0_1 (SET (mapplet g_s2_3 g_s1_2))) (= g_s3_4 (SET (mapplet g_s5_6 g_s4_5))) (= g_s6_7 (SET (mapplet g_s15_16 (mapplet g_s14_15 (mapplet g_s13_14 (mapplet g_s12_13 (mapplet g_s11_12 (mapplet g_s10_11 (mapplet g_s9_10 (mapplet g_s8_9 g_s7_8)))))))))) (= g_s16_17 (SET (mapplet g_s33_34 (mapplet g_s32_33 (mapplet g_s31_32 (mapplet g_s30_31 (mapplet g_s29_30 (mapplet g_s28_29 (mapplet g_s27_28 (mapplet g_s26_27 (mapplet g_s25_26 (mapplet g_s24_25 (mapplet g_s23_24 (mapplet g_s22_23 (mapplet g_s21_22 (mapplet g_s20_21 (mapplet g_s19_20 (mapplet g_s18_19 g_s17_18)))))))))))))))))) (= g_s34_35 (SET (mapplet g_s36_37 g_s35_36))) (= g_s37_38 (SET (mapplet g_s39_40 g_s38_39))) (= g_s40_41 (SET (mapplet g_s49_50 (mapplet g_s48_49 (mapplet g_s47_48 (mapplet g_s46_47 (mapplet g_s45_46 (mapplet g_s44_45 (mapplet g_s43_44 (mapplet g_s42_43 g_s41_42)))))))))) (mem g_s50_52 g_s51_51) (mem g_s52_54 g_s53_53) (mem g_s54_56 g_s55_55) (mem g_s56_57 g_s55_55) (mem g_s57_58 g_s55_55) (= g_s50_52 e59) (= g_s52_54 e60) (= g_s54_56 e61) (and (|>=i| g_s56_57 e0) (|<=i| g_s56_57 g_s54_56)) (and (|>=i| g_s57_58 e0) (|<=i| g_s57_58 g_s54_56)) (not (= g_s56_57 g_s57_58)) (= g_s58_62 (SET (mapplet g_s57_58 g_s56_57))) (= g_s59_63 (SET (mapplet (mapplet FALSE g_s57_58) (mapplet TRUE g_s56_57)))) (= g_s51_51 (interval e0 e59)) (= g_s53_53 (interval e0 e60)) (= g_s55_55 (interval e0 e61)) (mem g_s60_64 g_s55_55) (|<=i| g_s60_64 g_s61_65) (mem g_s62_66 g_s55_55) (|<=i| g_s62_66 g_s61_65) (mem g_s63_67 g_s55_55) (|<=i| g_s63_67 g_s64_68) (mem g_s65_69 g_s55_55) (|<=i| g_s65_69 g_s64_68) (mem g_s66_70 g_s55_55) (|<=i| g_s66_70 g_s64_68) (mem g_s67_71 g_s55_55) (|<=i| g_s67_71 g_s64_68) (mem g_s68_72 g_s55_55) (mem g_s69_73 g_s55_55) (mem g_s70_74 g_s55_55) (mem g_s71_75 g_s55_55) (not (= g_s68_72 g_s69_73)) (not (= g_s68_72 g_s70_74)) (not (= g_s68_72 g_s71_75)) (not (= g_s69_73 g_s70_74)) (not (= g_s69_73 g_s71_75)) (not (= g_s70_74 g_s71_75)) (= (interval e0 g_s72_76) (SET (mapplet g_s71_75 (mapplet g_s70_74 (mapplet g_s69_73 g_s68_72))))) (mem g_s73_77 g_s55_55) (= g_s73_77 (|*i| g_s74_78 g_s74_78)) (mem g_s75_79 g_s55_55) (= g_s75_79 (|-i| g_s73_77 e80)) (mem g_s76_81 g_s51_51) (mem g_s77_82 g_s51_51) (mem g_s78_83 g_s51_51) (mem g_s79_84 g_s51_51) (mem g_s80_85 g_s55_55) (mem g_s81_86 g_s55_55) (mem g_s82_87 g_s55_55) (mem g_s83_88 g_s55_55) (mem g_s84_89 g_s55_55) (mem g_s85_90 g_s55_55) (mem g_s86_91 g_s55_55) (mem g_s87_92 g_s55_55) (mem g_s88_93 g_s55_55) (mem g_s89_94 g_s55_55) (= g_s90_95 (SET (mapplet (|+i| g_s70_74 e80) (|+i| g_s69_73 e80)))) (= g_s91_96 (SET (mapplet (|+i| g_s71_75 e80) (|+i| g_s68_72 e80)))) (mem g_s92_97 g_s55_55) (|<i| (|+i| g_s92_97 g_s74_78) g_s54_56) (mem g_s93_98 g_s55_55) (= g_s93_98 (|+i| g_s92_97 g_s74_78)) (mem g_s94_99 g_s55_55) (mem g_s95_100 g_s55_55) (|<i| (|+i| g_s95_100 g_s74_78) g_s54_56) (mem g_s96_101 g_s55_55) (= g_s96_101 (|+i| g_s95_100 g_s74_78)) (mem g_s97_102 g_s55_55) (= g_s97_102 (|-i| g_s96_101 e80)) (mem g_s98_103 g_s55_55) (= g_s98_103 (|-i| g_s96_101 e104)) (mem g_s99_105 g_s55_55) (|<i| (|+i| g_s99_105 g_s74_78) g_s54_56) (mem g_s100_106 g_s55_55) (= g_s100_106 (|+i| g_s99_105 g_s74_78)) (mem g_s101_107 g_s55_55) (= g_s101_107 (|-i| g_s100_106 e80)) (mem g_s102_108 g_s55_55) (= g_s102_108 (|-i| g_s100_106 e104)) (mem g_s103_109 g_s55_55) (mem g_s104_110 g_s55_55) (mem g_s105_111 g_s55_55) (mem g_s106_112 g_s55_55) (mem g_s107_113 NATURAL1) (mem g_s108_114 NATURAL1) (mem g_s109_115 NATURAL1) (mem g_s110_116 g_s55_55) (|<i| g_s110_116 g_s54_56) (= g_s110_116 (|+i| g_s106_112 g_s107_113)) (mem g_s111_117 g_s55_55) (|<i| g_s111_117 g_s54_56) (= g_s111_117 (|+i| g_s106_112 g_s108_114)) (mem g_s112_118 g_s55_55) (|<i| g_s112_118 g_s54_56) (= g_s112_118 (|+i| g_s106_112 g_s109_115)) (mem g_s113_119 g_s55_55) (mem g_s114_120 NATURAL1) (mem g_s115_121 NATURAL1) (mem g_s116_122 NATURAL1) (mem g_s117_123 g_s55_55) (|<i| g_s117_123 g_s54_56) (= g_s117_123 (|+i| g_s113_119 g_s114_120)) (mem g_s118_124 g_s55_55) (|<i| g_s118_124 g_s54_56) (= g_s118_124 (|+i| g_s113_119 g_s115_121)) (mem g_s119_125 g_s55_55) (|<i| g_s119_125 g_s54_56) (= g_s119_125 (|+i| g_s113_119 g_s116_122)) (mem g_s120_126 g_s55_55) (mem g_s121_127 g_s55_55) (mem g_s122_128 g_s55_55) (and (|>=i| g_s122_128 e0) (|<=i| g_s122_128 e129)) (mem g_s123_130 g_s53_53) (|<=i| g_s123_130 g_s52_54) (mem g_s124_131 g_s55_55) (and (|>=i| g_s124_131 e0) (|<=i| g_s124_131 e129)) (mem g_s125_132 g_s55_55) (mem g_s126_133 g_s55_55) (mem g_s127_134 g_s55_55) (mem g_s128_135 NATURAL) (|<=i| e80 g_s128_135) (mem g_s129_136 NATURAL) (|<=i| e80 g_s129_136) (mem g_s130_137 NATURAL) (|<=i| e80 g_s130_137) (mem g_s131_138 NATURAL) (|<=i| e80 g_s131_138) (mem g_s132_139 g_s53_53) (|<=i| g_s132_139 g_s52_54) (mem g_s133_140 g_s55_55) (and (|>=i| g_s133_140 e0) (|<=i| g_s133_140 e129)) (mem g_s134_141 g_s53_53) (|<=i| g_s134_141 g_s52_54) (mem g_s135_142 g_s55_55) (and (|>=i| g_s135_142 e0) (|<=i| g_s135_142 e129)) (mem g_s136_143 g_s53_53) (|<=i| g_s136_143 g_s52_54) (mem g_s137_144 g_s55_55) (and (|>=i| g_s137_144 e0) (|<=i| g_s137_144 e129)) (mem g_s138_145 g_s55_55) (mem g_s139_146 g_s55_55) (and (|>=i| g_s139_146 e0) (|<=i| g_s139_146 e129)) (mem g_s140_147 g_s53_53) (mem g_s141_148 g_s55_55) (mem g_s142_149 g_s53_53) (mem g_s143_150 g_s53_53) (mem g_s144_151 g_s53_53) (mem g_s145_152 g_s53_53) (mem g_s146_153 g_s55_55) (mem g_s147_154 g_s55_55) (= g_s147_154 (|+i| g_s146_153 g_s74_78)) (|<i| g_s147_154 g_s54_56) (mem g_s148_155 g_s55_55) (|<=i| (|+i| g_s148_155 e104) g_s54_56) (mem g_s149_156 g_s55_55) (= g_s149_156 (|+i| g_s148_155 g_s74_78)) (|<i| g_s149_156 g_s54_56) (mem g_s150_157 g_s55_55) (= g_s150_157 (|-i| g_s149_156 e80)) (mem g_s151_158 g_s55_55) (mem g_s152_159 g_s55_55) (= g_s152_159 (|+i| g_s151_158 g_s128_135)) (mem g_s153_160 g_s55_55) (= g_s153_160 (|+i| g_s151_158 g_s129_136)) (mem g_s154_161 g_s55_55) (= g_s154_161 (|+i| g_s151_158 g_s130_137)) (mem g_s155_162 g_s55_55) (= g_s155_162 (|+i| g_s151_158 g_s131_138)) (mem g_s156_163 g_s55_55) (mem g_s157_164 g_s55_55) (mem g_s158_165 g_s55_55) (mem g_s159_166 NATURAL) (mem g_s160_167 NATURAL1) (|<=i| e80 g_s159_166) (= g_s159_166 (|-i| g_s157_164 g_s156_163)) (= g_s160_167 (|-i| g_s158_165 g_s156_163)) (mem g_s161_168 NATURAL) (mem g_s162_169 NATURAL) (mem g_s163_170 NATURAL) (mem g_s164_171 NATURAL) (|<=i| e80 g_s163_170) (mem g_s165_172 g_s55_55) (mem g_s166_173 g_s55_55) (mem g_s167_174 g_s55_55) (mem g_s168_175 g_s55_55) (mem g_s169_176 g_s55_55) (= g_s166_173 (|+i| g_s165_172 g_s161_168)) (= g_s167_174 (|+i| g_s165_172 g_s162_169)) (= g_s168_175 (|+i| g_s165_172 g_s163_170)) (= g_s169_176 (|+i| g_s165_172 g_s164_171)) (mem g_s170_177 g_s55_55) (mem g_s171_178 g_s55_55) (mem g_s172_179 g_s55_55) (mem g_s173_180 NATURAL1) (mem g_s174_181 NATURAL1) (= g_s173_180 (|-i| (|-i| g_s171_178 g_s170_177) e80)) (= g_s174_181 (|-i| (|-i| g_s172_179 g_s170_177) e80)) (mem g_s175_182 g_s51_51) (mem g_s176_183 g_s55_55) (mem g_s177_184 g_s55_55) (mem g_s178_185 NATURAL1) (mem g_s179_186 NATURAL1) (mem g_s180_187 NATURAL1) (= g_s178_185 (|-i| g_s175_182 g_s170_177)) (= g_s179_186 (|-i| g_s176_183 g_s170_177)) (= g_s180_187 (|-i| (|-i| g_s177_184 g_s170_177) e80)) (mem g_s181_188 NATURAL1) (mem g_s182_189 g_s55_55) (mem g_s183_190 g_s55_55) (mem g_s184_191 g_s51_51) (= g_s181_188 (|-i| (|-i| g_s184_191 g_s182_189) e80)) (mem g_s185_192 NATURAL) (mem g_s186_193 NATURAL1) (mem g_s187_194 NATURAL) (mem g_s188_195 NATURAL) (mem g_s189_196 NATURAL) (mem g_s190_197 NATURAL) (mem g_s191_198 NATURAL) (mem g_s192_199 NATURAL) (mem g_s193_200 NATURAL) (mem g_s194_201 NATURAL) (mem g_s195_202 g_s55_55) (|<=i| e80 g_s195_202) (mem g_s196_203 g_s55_55) (= g_s196_203 (|+i| g_s195_202 g_s193_200)) (mem g_s197_204 g_s55_55) (= g_s197_204 (|+i| g_s195_202 g_s194_201)) (mem g_s198_205 g_s55_55) (= g_s198_205 (|+i| g_s195_202 g_s188_195)) (mem g_s199_206 g_s55_55) (= g_s199_206 (|+i| g_s195_202 g_s187_194)) (mem g_s200_207 g_s55_55) (= g_s200_207 (|+i| g_s195_202 g_s189_196)) (mem g_s201_208 g_s55_55) (= g_s201_208 (|+i| g_s195_202 g_s192_199)) (mem g_s202_209 g_s55_55) (= g_s202_209 (|+i| g_s195_202 g_s190_197)) (mem g_s203_210 g_s55_55) (= g_s203_210 (|+i| g_s195_202 g_s191_198)) (mem g_s204_211 g_s51_51) (= g_s204_211 (|+i| g_s195_202 g_s185_192)) (mem g_s205_212 g_s55_55) (= g_s205_212 (|+i| g_s195_202 g_s186_193)) (mem g_s206_213 (|-->| (set_prod g_s6_7 g_s6_7) g_s55_55)) (= g_s207_214 (image (inverse g_s206_213) (SET g_s56_57))) (mem g_s208_215 (|-->| (set_prod g_s6_7 g_s6_7) (set_diff g_s53_53 (SET e60)))) (mem g_s209_216 (|<->| g_s6_7 g_s6_7)) (mem g_s210_217 (|-->| (set_prod g_s6_7 g_s6_7) g_s53_53)) (= g_s210_217 (|<+| g_s208_215 (set_prod g_s209_216 (SET e60)))) (mem g_s207_214 (|<->| g_s6_7 g_s6_7)) (mem g_s211_218 g_s55_55) (mem g_s212_219 g_s55_55) (mem g_s213_220 g_s53_53) (mem g_s214_221 g_s53_53) (mem g_s215_222 g_s51_51) (mem g_s216_223 g_s51_51) (mem g_s217_224 NATURAL) (|<=i| e104 g_s217_224) (mem g_s218_225 NATURAL) (|<=i| e104 g_s218_225) (mem g_s219_226 NATURAL) (|<=i| e104 g_s219_226) (|<=i| g_s217_224 g_s219_226) (mem g_s220_227 g_s55_55) (mem g_s221_228 g_s55_55) (= g_s221_228 (|+i| g_s220_227 g_s217_224)) (mem g_s222_229 g_s55_55) (= g_s222_229 (|+i| g_s220_227 g_s218_225)) (mem g_s223_230 g_s55_55) (= g_s223_230 (|+i| g_s220_227 g_s219_226)) (mem g_s224_231 g_s53_53) (mem g_s225_232 g_s53_53) (mem g_s226_233 g_s55_55) (|<=i| g_s224_231 g_s225_232) (mem g_s227_234 g_s51_51) (mem g_s228_235 g_s51_51) (mem g_s229_236 g_s51_51) (mem g_s230_237 g_s51_51) (mem g_s231_238 g_s51_51) (mem g_s232_239 g_s55_55) (|<=i| e104 g_s232_239) (mem g_s61_65 g_s55_55) (= g_s61_65 (|-i| g_s232_239 e80)) (mem g_s233_240 NATURAL1) (mem g_s234_241 NATURAL1) (mem g_s235_242 NATURAL1) (mem g_s236_243 NATURAL1) (mem g_s237_244 NATURAL1) (mem g_s238_245 NATURAL1) (mem g_s239_246 NATURAL1) (mem g_s240_247 NATURAL1) (mem g_s241_248 g_s55_55) (mem g_s242_249 g_s55_55) (= g_s242_249 (|+i| g_s241_248 g_s233_240)) (mem g_s243_250 g_s55_55) (mem g_s244_251 g_s55_55) (= g_s244_251 (|+i| g_s243_250 g_s234_241)) (mem g_s245_252 g_s55_55) (= g_s245_252 (|+i| g_s243_250 g_s235_242)) (mem g_s246_253 g_s55_55) (= g_s246_253 (|+i| g_s243_250 g_s236_243)) (mem g_s247_254 g_s55_55) (= g_s247_254 (|+i| g_s243_250 g_s237_244)) (mem g_s248_255 g_s55_55) (= g_s248_255 (|+i| g_s243_250 g_s238_245)) (mem g_s249_256 g_s55_55) (= g_s249_256 (|+i| g_s243_250 g_s239_246)) (mem g_s250_257 g_s55_55) (= g_s250_257 (|+i| g_s243_250 g_s240_247)) (mem g_s251_258 g_s51_51) (mem g_s252_259 g_s51_51) (mem g_s253_260 g_s51_51) (mem g_s254_261 g_s51_51) (mem g_s255_262 g_s51_51) (mem g_s256_263 g_s51_51) (mem g_s257_264 g_s51_51) (mem g_s258_265 g_s51_51) (mem g_s259_266 g_s51_51) (mem g_s260_267 g_s51_51) (mem g_s261_268 g_s51_51) (mem g_s262_269 g_s51_51) (mem g_s263_270 g_s51_51) (mem g_s264_271 g_s51_51) (mem g_s265_272 g_s51_51) (mem g_s266_273 g_s51_51) (mem g_s267_274 g_s51_51) (mem g_s268_275 g_s51_51) (mem g_s269_276 g_s51_51) (mem g_s74_78 g_s55_55) (|<=i| e0 g_s74_78) (|<=i| e104 g_s74_78) (mem g_s72_76 g_s55_55) (= g_s72_76 (|-i| g_s74_78 e80)) (mem g_s270_277 g_s55_55) (mem g_s271_278 g_s55_55) (= g_s271_278 (|-i| g_s270_277 e80)) (mem g_s272_279 g_s55_55) (mem g_s273_280 g_s55_55) (= g_s273_280 (|-i| g_s272_279 e80)) (mem g_s274_281 g_s53_53) (mem g_s275_282 g_s53_53) (mem g_s276_283 g_s53_53) (mem g_s277_284 g_s53_53) (not (= g_s276_283 g_s277_284)) (mem g_s278_285 g_s53_53) (mem g_s279_286 g_s53_53) (mem g_s280_287 g_s53_53) (mem g_s281_288 NATURAL) (= g_s281_288 (|-i| g_s279_286 g_s280_287)) (mem g_s282_289 g_s53_53) (mem g_s283_290 g_s53_53) (mem g_s284_291 g_s53_53) (mem g_s285_292 g_s53_53) (mem g_s286_293 g_s55_55) (mem g_s287_294 g_s55_55) (= g_s287_294 (|-i| g_s286_293 e80)) (= g_s272_279 (|*i| g_s74_78 g_s286_293)) (|<=i| e80 g_s286_293) (|<i| g_s286_293 g_s54_56) (mem g_s288_295 g_s55_55) (mem g_s289_296 g_s55_55) (mem g_s290_297 g_s51_51) (mem g_s291_298 g_s51_51) (mem g_s292_299 g_s51_51) (mem g_s293_300 g_s51_51) (mem g_s294_301 g_s51_51) (mem g_s295_302 g_s51_51) (= g_s295_302 (|-i| g_s294_301 e80)) (mem g_s296_303 g_s51_51) (mem g_s297_304 g_s51_51) (= g_s297_304 (|-i| g_s296_303 e80)) (mem g_s298_305 g_s55_55) (mem g_s64_68 g_s55_55) (mem g_s299_306 g_s51_51)))
(define-fun |def_seext| () Bool (and (mem g_s300_307 (|-->| (interval e0 g_s298_305) g_s55_55)) (mem g_s301_308 (|-->| (interval e0 g_s64_68) g_s55_55)) (mem g_s302_309 (|-->| (interval e0 g_s72_76) (|-->| (interval e0 g_s271_278) g_s53_53))) (mem g_s303_310 (|-->| (interval e0 g_s72_76) g_s53_53)) (mem g_s304_311 (|-->| (interval e0 g_s72_76) g_s55_55)) (mem g_s305_312 (|-->| (interval e0 g_s72_76) g_s55_55)) (mem g_s306_313 (|-->| (interval e0 g_s72_76) g_s55_55)) (mem g_s307_314 (|-->| (interval e0 g_s72_76) g_s55_55)) (mem g_s308_315 (|-->| (interval e0 g_s72_76) g_s55_55)) (mem g_s309_316 (|-->| (interval e0 g_s72_76) g_s55_55)) (mem g_s310_317 (|-->| (interval e0 g_s72_76) g_s55_55)) (mem g_s311_318 (|-->| (interval e0 g_s72_76) g_s55_55)) (mem g_s312_319 (|-->| (interval e0 g_s72_76) g_s55_55)) (mem g_s313_320 (|-->| (interval e0 g_s72_76) g_s55_55)) (mem g_s314_321 (|-->| (interval e0 g_s72_76) g_s55_55)) (mem g_s315_322 (|-->| (interval e0 g_s72_76) g_s55_55)) (mem g_s316_323 (|-->| (interval e0 g_s72_76) g_s55_55)) (mem g_s317_324 (|-->| (interval e0 g_s72_76) g_s53_53)) (mem g_s318_325 (|-->| (interval e0 g_s72_76) g_s53_53)) (mem g_s319_326 (|-->| (interval e0 g_s72_76) g_s53_53)) (mem g_s320_327 (|-->| (interval e0 g_s72_76) g_s55_55)) (mem g_s59_63 (|+->| BOOL g_s55_55)) (mem g_s59_63 (|+->| BOOL g_s53_53)) (mem g_s59_63 (|+->| BOOL g_s51_51))))
(define-fun |def_mchcst| () Bool true)
(define-fun |def_aprp| () Bool true)
(define-fun |def_abs| () Bool (and (mem g_s321_328 BOOL) (subset g_s322_329 (interval e80 g_s74_78)) (mem g_s323_330 BOOL)))
(define-fun |def_inv| () Bool (and (= g_s321_328 g_s321$1_331) (= g_s322_329 g_s322$1_332) (= g_s323_330 g_s323$1_333) (mem g_s324$1_334 g_s55_55)))
(define-fun |def_ass| () Bool true)
(define-fun |def_sets| () Bool true)
(define-fun |def_imlprp| () Bool true)
(define-fun |def_imprp| () Bool true)
(define-fun |def_imext| () Bool (and (mem g_s321$1_331 BOOL) (subset g_s322$1_332 (interval e80 g_s74_78)) (mem g_s323$1_333 BOOL)))
; PO group 0 
(push 1)
(assert |def_B definitions|)
(assert |def_ctx|)
(assert |def_mchcst|)
(assert |def_aprp|)
(assert |def_imlprp|)
(assert |def_imprp|)
(assert |def_imext|)
(assert |def_seext|)
(assert |def_abs|)
(assert |def_inv|)
(assert |def_ass|)
(define-fun lh_1 () Bool (mem g_s326$1_335 BOOL))
(define-fun lh_2 () Bool (mem g_s327$1_336 BOOL))
(define-fun lh_3 () Bool (mem g_s328$1_337 g_s6_7))
(define-fun lh_4 () Bool (mem g_s329$1_338 g_s6_7))
(define-fun lh_5 () Bool (mem g_s330$1_339 g_s55_55))
(define-fun lh_6 () Bool (mem g_s331$1_340 g_s55_55))
(define-fun lh_7 () Bool (mem g_s332$1_341 g_s6_7))
(define-fun lh_8 () Bool (mem g_s4_5 g_s3_4))
(define-fun lh_9 () Bool (mem g_s70_74 g_s55_55))
(define-fun lh_10 () Bool (mem g_s71_75 g_s55_55))
(define-fun lh_11 () Bool (and (|>=i| g_s70_74 e0) (|<=i| g_s70_74 g_s72_76)))
(define-fun lh_12 () Bool (and (|>=i| g_s71_75 e0) (|<=i| g_s71_75 g_s72_76)))
(define-fun lh_13 () Bool (mem g_s332$2_342 g_s6_7))
(define-fun lh_14 () Bool (mem g_s332$3_343 g_s6_7))
; PO 1 in group 0
(push 1)
(assert (not (=> (and lh_1 lh_2 lh_3 lh_4 lh_5 lh_6 lh_7) (and (|>=i| g_s70_74 e0) (|<=i| g_s70_74 g_s72_76)))))
(check-sat)
(pop 1)
; PO 2 in group 0
(push 1)
(assert (not (=> (and lh_1 lh_2 lh_3 lh_4 lh_5 lh_6 lh_7) (and (|>=i| g_s71_75 e0) (|<=i| g_s71_75 g_s72_76)))))
(set-info :status unknown)
(check-sat)
(pop 1)
; PO 3 in group 0
(push 1)
(assert (not (=> (and lh_1 lh_2 lh_3 lh_4 lh_5 lh_6 lh_7 lh_8 lh_9 lh_10 lh_11 lh_12 lh_13 lh_14) (and (|>=i| g_s69_73 e0) (|<=i| g_s69_73 g_s72_76)))))
(set-info :status unknown)
(check-sat)
(pop 1)
; PO 4 in group 0
(push 1)
(assert (not (=> (and lh_1 lh_2 lh_3 lh_4 lh_5 lh_6 lh_7 lh_8 lh_9 lh_10 lh_11 lh_12 lh_13 lh_14) (and (|>=i| g_s68_72 e0) (|<=i| g_s68_72 g_s72_76)))))
(set-info :status unknown)
(check-sat)
(pop 1)
(pop 1)
; PO group 1 
(push 1)
(assert |def_B definitions|)
(assert |def_ctx|)
(assert |def_mchcst|)
(assert |def_aprp|)
(assert |def_imlprp|)
(assert |def_imprp|)
(assert |def_imext|)
(assert |def_seext|)
(assert |def_abs|)
(assert |def_inv|)
(assert |def_ass|)
(assert (mem g_s332_344 g_s55_55))
(assert (mem g_s332$1_345 g_s55_55))
; PO 1 in group 1
(push 1)
(assert (not (mem g_s59_63 (|+->| (dom g_s59_63) (ran g_s59_63)))))
(set-info :status unknown)
(check-sat)
(pop 1)
; PO 2 in group 1
(push 1)
(assert (not (mem g_s323$1_333 (dom g_s59_63))))
(set-info :status unknown)
(check-sat)
(pop 1)
(pop 1)
; PO group 2 
(push 1)
(assert |def_B definitions|)
(assert |def_ctx|)
(assert |def_mchcst|)
(assert |def_aprp|)
(assert |def_imlprp|)
(assert |def_imprp|)
(assert |def_imext|)
(assert |def_seext|)
(assert |def_abs|)
(assert |def_inv|)
(assert |def_ass|)
(assert (mem g_s332_344 g_s55_55))
(assert (mem g_s332$1_345 g_s55_55))
; PO 1 in group 2
(push 1)
(assert (not (mem g_s59_63 (|+->| (dom g_s59_63) (ran g_s59_63)))))
(set-info :status unknown)
(check-sat)
(pop 1)
; PO 2 in group 2
(push 1)
(assert (not (mem g_s321$1_331 (dom g_s59_63))))
(set-info :status unknown)
(check-sat)
(pop 1)
(pop 1)
(exit)